p cnf 81 293
22 23 24 25 26 27 28 29 0
49 50 51 52 53 54 55 56 0
-1 -30 0
-1 -39 0
-1 -49 0
-1 -57 0
-1 -66 0
-1 -73 0
-30 -39 0
-30 -49 0
-30 -57 0
-30 -66 0
-30 -73 0
-39 -49 0
-39 -57 0
-39 -66 0
-39 -73 0
-49 -57 0
-49 -66 0
-49 -73 0
-57 -66 0
-57 -73 0
-66 -73 0
-2 -9 0
-2 -17 0
-2 -22 0
-2 -31 0
-2 -40 0
-2 -58 0
-2 -67 0
-2 -74 0
-9 -17 0
-9 -22 0
-9 -31 0
-9 -40 0
-9 -58 0
-9 -67 0
-9 -74 0
-17 -22 0
-17 -31 0
-17 -40 0
-17 -58 0
-17 -67 0
-17 -74 0
-22 -31 0
-22 -40 0
-22 -58 0
-22 -67 0
-22 -74 0
-31 -40 0
-31 -58 0
-31 -67 0
-31 -74 0
-40 -58 0
-40 -67 0
-40 -74 0
-58 -67 0
-58 -74 0
-67 -74 0
-3 -10 0
-3 -23 0
-3 -32 0
-3 -41 0
-3 -59 0
-3 -75 0
-10 -23 0
-10 -32 0
-10 -41 0
-10 -59 0
-10 -75 0
-23 -32 0
-23 -41 0
-23 -59 0
-23 -75 0
-32 -41 0
-32 -59 0
-32 -75 0
-41 -59 0
-41 -75 0
-59 -75 0
-11 -24 0
-11 -33 0
-11 -42 0
-11 -50 0
-11 -60 0
-11 -68 0
-24 -33 0
-24 -42 0
-24 -50 0
-24 -60 0
-24 -68 0
-33 -42 0
-33 -50 0
-33 -60 0
-33 -68 0
-42 -50 0
-42 -60 0
-42 -68 0
-50 -60 0
-50 -68 0
-60 -68 0
-4 -12 0
-4 -25 0
-4 -34 0
-4 -43 0
-4 -51 0
-4 -61 0
-4 -69 0
-4 -76 0
-12 -25 0
-12 -34 0
-12 -43 0
-12 -51 0
-12 -61 0
-12 -69 0
-12 -76 0
-25 -34 0
-25 -43 0
-25 -51 0
-25 -61 0
-25 -69 0
-25 -76 0
-34 -43 0
-34 -51 0
-34 -61 0
-34 -69 0
-34 -76 0
-43 -51 0
-43 -61 0
-43 -69 0
-43 -76 0
-51 -61 0
-51 -69 0
-51 -76 0
-61 -69 0
-61 -76 0
-69 -76 0
-5 -13 0
-5 -18 0
-5 -26 0
-5 -35 0
-5 -44 0
-5 -52 0
-5 -70 0
-5 -77 0
-13 -18 0
-13 -26 0
-13 -35 0
-13 -44 0
-13 -52 0
-13 -70 0
-13 -77 0
-18 -26 0
-18 -35 0
-18 -44 0
-18 -52 0
-18 -70 0
-18 -77 0
-26 -35 0
-26 -44 0
-26 -52 0
-26 -70 0
-26 -77 0
-35 -44 0
-35 -52 0
-35 -70 0
-35 -77 0
-44 -52 0
-44 -70 0
-44 -77 0
-52 -70 0
-52 -77 0
-70 -77 0
-6 -14 0
-6 -19 0
-6 -45 0
-6 -53 0
-6 -62 0
-6 -71 0
-6 -78 0
-14 -19 0
-14 -45 0
-14 -53 0
-14 -62 0
-14 -71 0
-14 -78 0
-19 -45 0
-19 -53 0
-19 -62 0
-19 -71 0
-19 -78 0
-45 -53 0
-45 -62 0
-45 -71 0
-45 -78 0
-53 -62 0
-53 -71 0
-53 -78 0
-62 -71 0
-62 -78 0
-71 -78 0
-15 -20 0
-15 -27 0
-15 -36 0
-15 -46 0
-15 -54 0
-15 -63 0
-15 -79 0
-20 -27 0
-20 -36 0
-20 -46 0
-20 -54 0
-20 -63 0
-20 -79 0
-27 -36 0
-27 -46 0
-27 -54 0
-27 -63 0
-27 -79 0
-36 -46 0
-36 -54 0
-36 -63 0
-36 -79 0
-46 -54 0
-46 -63 0
-46 -79 0
-54 -63 0
-54 -79 0
-63 -79 0
-7 -16 0
-7 -28 0
-7 -37 0
-7 -47 0
-7 -55 0
-7 -64 0
-7 -80 0
-16 -28 0
-16 -37 0
-16 -47 0
-16 -55 0
-16 -64 0
-16 -80 0
-28 -37 0
-28 -47 0
-28 -55 0
-28 -64 0
-28 -80 0
-37 -47 0
-37 -55 0
-37 -64 0
-37 -80 0
-47 -55 0
-47 -64 0
-47 -80 0
-55 -64 0
-55 -80 0
-64 -80 0
-8 -21 0
-8 -29 0
-8 -38 0
-8 -48 0
-8 -56 0
-8 -65 0
-8 -72 0
-8 -81 0
-21 -29 0
-21 -38 0
-21 -48 0
-21 -56 0
-21 -65 0
-21 -72 0
-21 -81 0
-29 -38 0
-29 -48 0
-29 -56 0
-29 -65 0
-29 -72 0
-29 -81 0
-38 -48 0
-38 -56 0
-38 -65 0
-38 -72 0
-38 -81 0
-48 -56 0
-48 -65 0
-48 -72 0
-48 -81 0
-56 -65 0
-56 -72 0
-56 -81 0
-65 -72 0
-65 -81 0
-72 -81 0
